decision_x1=[0,2];
decision_x2=[0,2];
decision_x3=[0,2];
decision_x4=[0,2];
decision_x5=[0,2];
decision_x6=[0,2];
decision_x7=[0,2];
decision_x8=[0,2];
decision_x9=[0,2];
decision_x10=[0,2];
decision_x11=[0,2];
decision_x12=[0,2];
random_y1=[0,2];
random_y2=[0,2];
random_y3=[0,2];
constraint_x3_x1=[
0,0,0.88|
0,1,5.5|
0,2,4.9|
1,0,8.1|
1,1,5.8|
1,2,6.5|
2,0,1.6|
2,1,6.4|
2,2,8.8|
];
constraint_x3_x2=[
0,0,3.9|
0,1,4.8|
0,2,1.4|
1,0,7.7|
1,1,7.9|
1,2,8.9|
2,0,3.2|
2,1,2.4|
2,2,5.7|
];
constraint_x4_x2=[
0,0,3.4|
0,1,1.3|
0,2,4.1|
1,0,0.38|
1,1,2.3|
1,2,3.7|
2,0,6.6|
2,1,7.7|
2,2,1.6|
];
constraint_x4_x3=[
0,0,3|
0,1,4.4|
0,2,0.3|
1,0,6.9|
1,1,5.8|
1,2,5.9|
2,0,9.5|
2,1,3.9|
2,2,5.3|
];
constraint_x5_x2=[
0,0,2|
0,1,9.3|
0,2,0.88|
1,0,5.2|
1,1,5.8|
1,2,7.3|
2,0,2|
2,1,1.9|
2,2,2.4|
];
constraint_x5_x4=[
0,0,9.1|
0,1,5.1|
0,2,0.25|
1,0,4.7|
1,1,0.089|
1,2,9.1|
2,0,5.1|
2,1,0.66|
2,2,7.4|
];
constraint_x6_x2=[
0,0,0.37|
0,1,1.9|
0,2,7.1|
1,0,2.6|
1,1,7.3|
1,2,2.6|
2,0,4.5|
2,1,0.098|
2,2,1.5|
];
constraint_x6_x3=[
0,0,5.7|
0,1,1.1|
0,2,3|
1,0,0.12|
1,1,5.8|
1,2,6.3|
2,0,3.2|
2,1,3.4|
2,2,2.9|
];
constraint_x7_x3=[
0,0,5.9|
0,1,2.6|
0,2,7.2|
1,0,1.7|
1,1,2.6|
1,2,1.4|
2,0,5.8|
2,1,4.9|
2,2,6.6|
];
constraint_x7_x5=[
0,0,9.4|
0,1,7.1|
0,2,8.6|
1,0,5.4|
1,1,3.9|
1,2,1.2|
2,0,7.2|
2,1,2.3|
2,2,5.9|
];
constraint_x7_x6=[
0,0,8.6|
0,1,1.1|
0,2,8.3|
1,0,7.8|
1,1,2.3|
1,2,7.7|
2,0,7.9|
2,1,9|
2,2,1.3|
];
constraint_x8_x1=[
0,0,6.3|
0,1,9.7|
0,2,9.7|
1,0,6.4|
1,1,6.5|
1,2,9.2|
2,0,9|
2,1,6.1|
2,2,6.1|
];
constraint_x8_x3=[
0,0,7.2|
0,1,6.5|
0,2,2.2|
1,0,9.5|
1,1,8.6|
1,2,1.2|
2,0,4.9|
2,1,3|
2,2,1.4|
];
constraint_x8_x4=[
0,0,9|
0,1,5.7|
0,2,5.7|
1,0,6.3|
1,1,0.67|
1,2,0.7|
2,0,3.7|
2,1,6.7|
2,2,1.7|
];
constraint_x8_x5=[
0,0,8.5|
0,1,8|
0,2,2.6|
1,0,3.3|
1,1,3.6|
1,2,4.3|
2,0,7.2|
2,1,8.2|
2,2,3.4|
];
constraint_x9_x1=[
0,0,2.5|
0,1,7.5|
0,2,7.6|
1,0,9.3|
1,1,8.8|
1,2,6|
2,0,8.9|
2,1,2.6|
2,2,5.8|
];
constraint_x9_x2=[
0,0,1.7|
0,1,6.4|
0,2,7.4|
1,0,2.4|
1,1,9.5|
1,2,9.5|
2,0,4.3|
2,1,9.7|
2,2,1.7|
];
constraint_x9_x3=[
0,0,1.8|
0,1,5.1|
0,2,9.5|
1,0,1.3|
1,1,0.032|
1,2,1.9|
2,0,5|
2,1,7|
2,2,4.2|
];
constraint_x9_x6=[
0,0,5.1|
0,1,6.9|
0,2,0.44|
1,0,7.7|
1,1,6.2|
1,2,2.9|
2,0,5|
2,1,9.9|
2,2,0.85|
];
constraint_x9_x8=[
0,0,4.4|
0,1,3.5|
0,2,5.5|
1,0,2.4|
1,1,2.5|
1,2,6.1|
2,0,8|
2,1,0.45|
2,2,5.3|
];
constraint_x10_x2=[
0,0,7.8|
0,1,9.4|
0,2,6.4|
1,0,9|
1,1,7.1|
1,2,6.3|
2,0,2.8|
2,1,8.7|
2,2,0.87|
];
constraint_x10_x3=[
0,0,3.3|
0,1,0.54|
0,2,8.4|
1,0,0.16|
1,1,7|
1,2,2.9|
2,0,5.3|
2,1,8.9|
2,2,6.8|
];
constraint_x10_x8=[
0,0,2.2|
0,1,7.7|
0,2,8|
1,0,4.4|
1,1,6.4|
1,2,2.1|
2,0,3.2|
2,1,9.8|
2,2,8.1|
];
constraint_x10_x9=[
0,0,4.3|
0,1,9.1|
0,2,9.8|
1,0,0.35|
1,1,3.3|
1,2,5.1|
2,0,5|
2,1,6.4|
2,2,3.7|
];
constraint_x11_x2=[
0,0,7.2|
0,1,2.3|
0,2,1.8|
1,0,3.3|
1,1,8.4|
1,2,4.2|
2,0,5.7|
2,1,7.3|
2,2,2.2|
];
constraint_x11_x5=[
0,0,5.3|
0,1,7.1|
0,2,9.8|
1,0,5.8|
1,1,8.2|
1,2,6.2|
2,0,7|
2,1,9.7|
2,2,8.1|
];
constraint_x11_x10=[
0,0,1.7|
0,1,8.7|
0,2,3.8|
1,0,6.5|
1,1,3.6|
1,2,6.7|
2,0,10|
2,1,2.2|
2,2,9|
];
constraint_x12_x1=[
0,0,2.3|
0,1,4|
0,2,3.2|
1,0,4.3|
1,1,3.1|
1,2,5|
2,0,5.4|
2,1,2|
2,2,4.2|
];
constraint_x12_x3=[
0,0,6.4|
0,1,3.7|
0,2,4.6|
1,0,5.7|
1,1,9.5|
1,2,2.2|
2,0,3.6|
2,1,0.84|
2,2,5.8|
];
constraint_x12_x5=[
0,0,3.4|
0,1,1.3|
0,2,7|
1,0,9.4|
1,1,8.9|
1,2,4.5|
2,0,0.57|
2,1,6.5|
2,2,4.3|
];
constraint_x12_x6=[
0,0,6.7|
0,1,6.7|
0,2,6.7|
1,0,2.6|
1,1,9.4|
1,2,1.5|
2,0,9.8|
2,1,3.1|
2,2,9.6|
];
constraint_x12_x7=[
0,0,3.2|
0,1,4.4|
0,2,6|
1,0,2.1|
1,1,9.1|
1,2,2.3|
2,0,5.2|
2,1,2.2|
2,2,4.2|
];
constraint_x12_x8=[
0,0,1.2|
0,1,0.52|
0,2,2.4|
1,0,7.1|
1,1,4.9|
1,2,0.093|
2,0,8|
2,1,6|
2,2,3.8|
];
constraint_x1_y1=[
0,0,3.2|
0,1,1.9|
0,2,4.9|
1,0,7.8|
1,1,5.4|
1,2,0.29|
2,0,5.6|
2,1,4.4|
2,2,4.5|
];
constraint_x2_y2=[
0,0,4.3|
0,1,2.6|
0,2,4|
1,0,6.7|
1,1,4.4|
1,2,9.5|
2,0,2.1|
2,1,0.38|
2,2,1.2|
];
constraint_x3_y3=[
0,0,7.4|
0,1,5.7|
0,2,1.3|
1,0,3.4|
1,1,0.31|
1,2,0.66|
2,0,3.1|
2,1,1.6|
2,2,9.1|
];
initial_distribution_y1=[0.099,0.56,0.34];
initial_distribution_y2=[0.47,0.28,0.24];
initial_distribution_y3=[0.07,0.55,0.38];
transition_y1=[
0.46,0.24,0.3|
0.34,0.36,0.3|
0.28,0.47,0.25|
];
transition_y2=[
0.017,0.46,0.52|
0.037,0.59,0.37|
0.48,0.21,0.3|
];
transition_y3=[
0.47,0.26,0.27|
0.34,0.17,0.49|
0.61,0.17,0.23|
];
